mixintcount/benchmarks/random_v2l/3_3_7079.smt2
(set-logic QF_LIA)
(set-info :ran/ran2.smt2)
(set-info :smt-lib-version 2.0)
(declare-fun x1 () Int)
(declare-fun x2 () Int)
(declare-fun x3 () Int)
(assert (<= (+ (* 6 x1) (* (- 1) x2) (* 7 x3) ) 6892))
(assert (<= (+ (* (- 1) x1) (* (- 9) x2) (* 2 x3) ) 263))
(assert (<= (+ (* 8 x1) (* 4 x2) (* 5 x3) ) 2093))
(assert (<= (+ (* 4 x1) (* 2 x2) (* (- 1) x3) ) 5979))
(assert (<= (+ (* (- 9) x1) (* 6 x2) (* 7 x3) ) (- 5867)))
(assert (<= (+ (* 10 x1) (* (- 10) x2) (* (- 8) x3) ) (- 2219)))
(assert (<= (+ (* 1 x1) (* 0 x2) (* 0 x3) ) 7079))
(assert (<= (+ (* (- 1) x1) (* 0 x2) (* 0 x3) ) 7079))
(assert (<= (+ (* 0 x1) (* 1 x2) (* 0 x3) ) 7079))
(assert (<= (+ (* 0 x1) (* (- 1) x2) (* 0 x3) ) 7079))
(assert (<= (+ (* 0 x1) (* 0 x2) (* 1 x3) ) 7079))
(assert (<= (+ (* 0 x1) (* 0 x2) (* (- 1) x3) ) 7079))
