mixintcount/benchmarks/random_v2l/3_3_7079.in
12 5
#	x1	x2	x3;		0 = Real; 1 = Integer
	1	1	1
1	6	-1	7	6892
1	-1	-9	2	263
1	8	4	5	2093
1	4	2	-1	5979
1	-9	6	7	-5867
1	10	-10	-8	-2219
1	1	0	0	7079
1	-1	0	0	7079
1	0	1	0	7079
1	0	-1	0	7079
1	0	0	1	7079
1	0	0	-1	7079
